solution status: time limit reached
objective value:                                  185
shell_j_$_42__6                                     1 	(obj:0)
shell_i_$_285                                       1 	(obj:0)
shell_j_$_40                                        1 	(obj:0)
shell_j_$_56                                        1 	(obj:0)
shell_i_$_177                                       1 	(obj:0)
shell_j_$_37                                        1 	(obj:0)
shell_i_$_208                                       1 	(obj:0)
shell_j_$_54__6                                     1 	(obj:0)
shell_i_$_163__6                                    1 	(obj:0)
shell_j_$_140                                       1 	(obj:0)
shell_i_$_104                                       1 	(obj:0)
shell_j_$_63__6                                     1 	(obj:0)
shell_j_$_169                                       1 	(obj:0)
shell_i_$_211__6                                    1 	(obj:0)
shell_i_$_271                                       1 	(obj:0)
shell_j_$_52__6                                     1 	(obj:0)
shell_i_$_189                                       1 	(obj:0)
shell_j_$_199__6                                    1 	(obj:0)
shell_j_$_186                                       1 	(obj:0)
shell_i_$_61                                        1 	(obj:0)
shell_j_$_209                                       1 	(obj:0)
shell_j_$_232                                       1 	(obj:0)
shell_j_$_191                                       1 	(obj:0)
shell_j_$_162__6                                    1 	(obj:0)
shell_j_$_202__6                                    1 	(obj:0)
shell_j_$_165__6                                    1 	(obj:0)
shell_j_$_183__6                                    1 	(obj:0)
shell_i_$_219                                       1 	(obj:0)
shell_j_$_164__6                                    1 	(obj:0)
shell_i_$_178                                       1 	(obj:0)
shell_j_$_148                                       1 	(obj:0)
shell_i_$_245__6                                    1 	(obj:0)
shell_i_$_172__6                                    1 	(obj:0)
shell_i_$_213__6                                    1 	(obj:0)
shell_i_$_173__6                                    1 	(obj:0)
shell_j_$_53__6                                     1 	(obj:0)
shell_j_$_268                                       1 	(obj:0)
shell_j_$_92                                        1 	(obj:0)
shell_i_$_93                                        1 	(obj:0)
shell_j_$_32__6                                     1 	(obj:0)
shell_j_$_38__6                                     1 	(obj:0)
shell_j_$_43                                        1 	(obj:0)
shell_j_$_218                                       1 	(obj:0)
shell_i_$_167                                       1 	(obj:0)
shell_j_$_264                                       1 	(obj:0)
shell_j_$_204__6                                    1 	(obj:0)
shell_j_$_30__6                                     1 	(obj:0)
shell_i_$_197__6                                    1 	(obj:0)
shell_j_$_154__6                                    1 	(obj:0)
shell_j_$_255__6                                    1 	(obj:0)
shell_j_$_224__6                                    1 	(obj:0)
shell_j_$_240__6                                    1 	(obj:0)
shell_j_$_34                                        1 	(obj:0)
shell_i_$_158__6                                    1 	(obj:0)
shell_i_$_243__6                                    1 	(obj:0)
shell_j_$_267                                       1 	(obj:0)
shell_j_$_214__6                                    1 	(obj:0)
shell_j_$_251                                       1 	(obj:0)
shell_j_$_203__6                                    1 	(obj:0)
shell_i_$_60__6                                     1 	(obj:0)
shell_i_$_65                                        1 	(obj:0)
shell_j_$_107                                       1 	(obj:0)
shell_j_$_168                                       1 	(obj:0)
shell_i_$_244__6                                    1 	(obj:0)
shell_j_$_206__6                                    1 	(obj:0)
shell_j_$_227                                       1 	(obj:0)
shell_j_$_252__6                                    1 	(obj:0)
shell_j_$_238__6                                    1 	(obj:0)
shell_j_$_64__6                                     1 	(obj:0)
shell_j_$_161__6                                    1 	(obj:0)
shell_j_$_249                                       1 	(obj:0)
shell_i_$_141                                       1 	(obj:0)
shell_i_$_170__6                                    1 	(obj:0)
shell_i_$_210                                       1 	(obj:0)
shell_j_$_62                                        1 	(obj:0)
shell_j_$_226                                       1 	(obj:0)
shell_i_$_182                                       1 	(obj:0)
shell_j_$_223                                       1 	(obj:0)
shell_j_$_254__6                                    1 	(obj:0)
shell_i_$_55__6                                     1 	(obj:0)
shell_j_$_185                                       1 	(obj:0)
shell_j_$_33__6                                     1 	(obj:0)
shell_i_$_247__6                                    1 	(obj:0)
shell_j_$_259                                       1 	(obj:0)
shell_j_$_39                                        1 	(obj:0)
shell_j_$_260                                       1 	(obj:0)
shell_j_$_31__6                                     1 	(obj:0)
shell_i_$_265__6                                    1 	(obj:0)
shell_j_$_282                                       1 	(obj:0)
shell_j_$_273                                       1 	(obj:0)
shell_j_$_105                                       1 	(obj:0)
shell_j_$_41__6                                     1 	(obj:0)
shell_j_$_106                                       1 	(obj:0)
shell_j_$_150                                       1 	(obj:0)
shell_i_$_91                                        1 	(obj:0)
shell_i_$_230                                       1 	(obj:0)
shell_i_$_287                                       1 	(obj:0)
shell_j_$_156__6                                    1 	(obj:0)
shell_i_$_246__6                                    1 	(obj:0)
shell_j_$_205__6                                    1 	(obj:0)
shell_i_$_236__6                                    1 	(obj:0)
shell_i_$_250                                       1 	(obj:0)
shell_i_$_195__6                                    1 	(obj:0)
shell_i_$_59                                        1 	(obj:0)
shell_i_$_90                                        1 	(obj:0)
$_218_x                                            -8 	(obj:0)
$_218_y                                            -8 	(obj:0)
$_218_z                                           -16 	(obj:0)
$_40_z                                            -12 	(obj:0)
$_199__6_x                                         -7 	(obj:0)
$_167_x                                            -8 	(obj:0)
$_167_y                                            -5 	(obj:0)
$_167_z                                           -23 	(obj:0)
$_199__6_y                                         -8 	(obj:0)
$_199__6_z                                         -7 	(obj:0)
$_264_x                                            -5 	(obj:0)
$_264_y                                            -8 	(obj:0)
$_264_z                                           -11 	(obj:0)
$_42__6_y                                          -8 	(obj:0)
$_54__6_x                                          -4 	(obj:0)
$_204__6_x                                         -7 	(obj:0)
$_204__6_y                                         -8 	(obj:0)
$_204__6_z                                        -21 	(obj:0)
$_186_x                                            -8 	(obj:0)
$_186_y                                            -8 	(obj:0)
$_30__6_x                                          -3 	(obj:0)
$_30__6_y                                          -8 	(obj:0)
$_30__6_z                                           2 	(obj:0)
$_186_z                                           -10 	(obj:0)
$_54__6_y                                          -8 	(obj:0)
$_197__6_x                                         -8 	(obj:0)
$_197__6_y                                         -8 	(obj:0)
$_197__6_z                                        -23 	(obj:0)
$_54__6_z                                         -21 	(obj:0)
$_61_x                                             -8 	(obj:0)
$_154__6_x                                         -7 	(obj:0)
$_154__6_y                                         -8 	(obj:0)
$_154__6_z                                         -1 	(obj:0)
$_61_y                                             -6 	(obj:0)
$_61_z                                             -1 	(obj:0)
$_255__6_x                                         -8 	(obj:0)
$_255__6_y                                         -8 	(obj:0)
$_255__6_z                                         -5 	(obj:0)
$_285_x                                            -8 	(obj:0)
$_56_x                                             -5 	(obj:0)
$_224__6_x                                         -6 	(obj:0)
$_224__6_y                                         -8 	(obj:0)
$_209_x                                            -8 	(obj:0)
$_209_y                                            -8 	(obj:0)
$_240__6_x                                         -7 	(obj:0)
$_240__6_y                                         -8 	(obj:0)
$_240__6_z                                         -3 	(obj:0)
$_209_z                                           -22 	(obj:0)
$_163__6_x                                         -8 	(obj:0)
$_34_x                                             -3 	(obj:0)
$_34_y                                             -8 	(obj:0)
$_34_z                                            -23 	(obj:0)
$_163__6_y                                         -2 	(obj:0)
$_232_x                                            -8 	(obj:0)
$_158__6_x                                         -8 	(obj:0)
$_158__6_y                                         -5 	(obj:0)
$_158__6_z                                        -10 	(obj:0)
$_232_y                                            -8 	(obj:0)
$_232_z                                            -4 	(obj:0)
$_243__6_x                                         -8 	(obj:0)
$_243__6_y                                         -2 	(obj:0)
$_243__6_z                                         -3 	(obj:0)
$_163__6_z                                        -14 	(obj:0)
$_56_y                                             -8 	(obj:0)
$_267_x                                            -4 	(obj:0)
$_267_y                                            -8 	(obj:0)
$_267_z                                            -7 	(obj:0)
$_191_x                                            -6 	(obj:0)
$_191_y                                            -8 	(obj:0)
$_214__6_x                                         -8 	(obj:0)
$_214__6_y                                         -8 	(obj:0)
$_214__6_z                                         -9 	(obj:0)
$_191_z                                            -6 	(obj:0)
$_56_z                                            -19 	(obj:0)
$_251_x                                            -6 	(obj:0)
$_251_y                                            -8 	(obj:0)
$_251_z                                           -19 	(obj:0)
$_140_x                                            -6 	(obj:0)
$_162__6_x                                         -3 	(obj:0)
$_203__6_x                                         -7 	(obj:0)
$_203__6_y                                         -8 	(obj:0)
$_162__6_y                                         -8 	(obj:0)
$_162__6_z                                          1 	(obj:0)
$_60__6_x                                          -8 	(obj:0)
$_60__6_y                                          -2 	(obj:0)
$_60__6_z                                          -4 	(obj:0)
$_140_y                                            -8 	(obj:0)
$_140_z                                            -7 	(obj:0)
$_65_x                                             -8 	(obj:0)
$_65_y                                             -8 	(obj:0)
$_65_z                                              3 	(obj:0)
$_202__6_x                                         -2 	(obj:0)
$_202__6_y                                         -8 	(obj:0)
$_107_x                                            -7 	(obj:0)
$_107_y                                            -8 	(obj:0)
$_107_z                                           -10 	(obj:0)
$_202__6_z                                         -4 	(obj:0)
$_285_y                                            -7 	(obj:0)
$_168_x                                            -4 	(obj:0)
$_168_y                                            -8 	(obj:0)
$_168_z                                           -23 	(obj:0)
$_285_z                                           -11 	(obj:0)
$_165__6_x                                         -4 	(obj:0)
$_244__6_x                                         -8 	(obj:0)
$_244__6_y                                         -7 	(obj:0)
$_244__6_z                                          4 	(obj:0)
$_165__6_y                                         -8 	(obj:0)
$_165__6_z                                        -20 	(obj:0)
$_206__6_x                                         -7 	(obj:0)
$_206__6_y                                         -8 	(obj:0)
$_206__6_z                                        -17 	(obj:0)
$_104_x                                            -8 	(obj:0)
$_104_y                                            -6 	(obj:0)
$_227_x                                            -8 	(obj:0)
$_227_y                                            -8 	(obj:0)
$_227_z                                            -7 	(obj:0)
$_183__6_x                                         -7 	(obj:0)
$_183__6_y                                         -8 	(obj:0)
$_252__6_x                                         -5 	(obj:0)
$_252__6_y                                         -8 	(obj:0)
$_252__6_z                                         -7 	(obj:0)
$_183__6_z                                         -2 	(obj:0)
$_104_z                                            -3 	(obj:0)
$_238__6_x                                         -6 	(obj:0)
$_238__6_y                                         -8 	(obj:0)
$_238__6_z                                        -16 	(obj:0)
$_177_x                                            -8 	(obj:0)
$_219_x                                            -8 	(obj:0)
$_64__6_x                                          -8 	(obj:0)
$_64__6_y                                          -8 	(obj:0)
$_64__6_z                                          -1 	(obj:0)
$_219_y                                            -6 	(obj:0)
$_219_z                                           -15 	(obj:0)
$_161__6_x                                         -6 	(obj:0)
$_161__6_y                                         -8 	(obj:0)
$_161__6_z                                        -14 	(obj:0)
$_177_y                                            -5 	(obj:0)
$_63__6_x                                          -8 	(obj:0)
$_249_x                                            -7 	(obj:0)
$_249_y                                            -8 	(obj:0)
$_249_z                                           -19 	(obj:0)
$_164__6_x                                         -4 	(obj:0)
$_164__6_y                                         -8 	(obj:0)
$_141_x                                            -8 	(obj:0)
$_141_y                                            -5 	(obj:0)
$_141_z                                           -13 	(obj:0)
$_164__6_z                                        -14 	(obj:0)
$_63__6_y                                          -8 	(obj:0)
$_170__6_x                                         -8 	(obj:0)
$_170__6_y                                         -6 	(obj:0)
$_170__6_z                                        -11 	(obj:0)
$_178_x                                            -8 	(obj:0)
$_210_x                                            -8 	(obj:0)
$_210_y                                            -4 	(obj:0)
$_210_z                                           -22 	(obj:0)
$_178_y                                            -6 	(obj:0)
$_178_z                                           -16 	(obj:0)
$_62_x                                             -8 	(obj:0)
$_62_y                                             -8 	(obj:0)
$_62_z                                             -2 	(obj:0)
$_177_z                                           -17 	(obj:0)
$_42__6_z                                           2 	(obj:0)
$_226_x                                            -6 	(obj:0)
$_226_y                                            -8 	(obj:0)
$_226_z                                           -11 	(obj:0)
$_148_x                                            -5 	(obj:0)
$_148_y                                            -8 	(obj:0)
$_182_x                                            -8 	(obj:0)
$_182_y                                            -4 	(obj:0)
$_182_z                                           -15 	(obj:0)
$_148_z                                           -23 	(obj:0)
$_169_x                                            -6 	(obj:0)
$_223_x                                            -7 	(obj:0)
$_223_y                                            -8 	(obj:0)
$_223_z                                           -14 	(obj:0)
$_169_y                                            -8 	(obj:0)
$_245__6_x                                         -8 	(obj:0)
$_254__6_x                                         -8 	(obj:0)
$_254__6_y                                         -8 	(obj:0)
$_254__6_z                                         -8 	(obj:0)
$_245__6_y                                         -3 	(obj:0)
$_245__6_z                                        -21 	(obj:0)
$_55__6_x                                          -8 	(obj:0)
$_55__6_y                                          -2 	(obj:0)
$_55__6_z                                         -19 	(obj:0)
$_169_z                                           -23 	(obj:0)
$_42__6_x                                          -8 	(obj:0)
$_185_x                                            -7 	(obj:0)
$_185_y                                            -8 	(obj:0)
$_185_z                                           -13 	(obj:0)
$_172__6_x                                         -8 	(obj:0)
$_172__6_y                                         -5 	(obj:0)
$_33__6_x                                          -8 	(obj:0)
$_33__6_y                                          -8 	(obj:0)
$_33__6_z                                         -24 	(obj:0)
$_172__6_z                                        -11 	(obj:0)
$_37_x                                             -8 	(obj:0)
$_247__6_x                                         -8 	(obj:0)
$_247__6_y                                         -8 	(obj:0)
$_247__6_z                                        -19 	(obj:0)
$_211__6_x                                         -8 	(obj:0)
$_213__6_x                                         -8 	(obj:0)
$_259_x                                            -8 	(obj:0)
$_259_y                                            -8 	(obj:0)
$_259_z                                           -14 	(obj:0)
$_213__6_y                                         -3 	(obj:0)
$_213__6_z                                        -13 	(obj:0)
$_39_x                                             -4 	(obj:0)
$_39_y                                             -8 	(obj:0)
$_39_z                                            -15 	(obj:0)
$_211__6_y                                         -4 	(obj:0)
$_211__6_z                                        -11 	(obj:0)
$_260_x                                            -8 	(obj:0)
$_260_y                                            -8 	(obj:0)
$_260_z                                           -11 	(obj:0)
$_173__6_x                                         -8 	(obj:0)
$_173__6_y                                         -6 	(obj:0)
$_31__6_x                                          -8 	(obj:0)
$_31__6_y                                          -8 	(obj:0)
$_31__6_z                                         -21 	(obj:0)
$_173__6_z                                        -10 	(obj:0)
$_37_y                                             -8 	(obj:0)
$_265__6_x                                         -8 	(obj:0)
$_265__6_y                                         -4 	(obj:0)
$_265__6_z                                          2 	(obj:0)
$_37_z                                            -17 	(obj:0)
$_53__6_x                                          -8 	(obj:0)
$_282_x                                            -5 	(obj:0)
$_282_y                                            -8 	(obj:0)
$_282_z                                           -15 	(obj:0)
$_53__6_y                                          -8 	(obj:0)
$_53__6_z                                         -25 	(obj:0)
$_273_x                                            -7 	(obj:0)
$_273_y                                            -8 	(obj:0)
$_273_z                                             1 	(obj:0)
$_271_x                                            -8 	(obj:0)
$_271_y                                            -7 	(obj:0)
$_105_x                                            -8 	(obj:0)
$_105_y                                            -8 	(obj:0)
$_105_z                                           -13 	(obj:0)
$_268_x                                            -8 	(obj:0)
$_268_y                                            -8 	(obj:0)
$_41__6_x                                          -6 	(obj:0)
$_41__6_y                                          -8 	(obj:0)
$_41__6_z                                         -15 	(obj:0)
$_268_z                                            -3 	(obj:0)
$_271_z                                           -17 	(obj:0)
$_106_x                                            -8 	(obj:0)
$_106_y                                            -8 	(obj:0)
$_106_z                                             1 	(obj:0)
$_40_x                                             -8 	(obj:0)
$_92_x                                             -7 	(obj:0)
$_150_x                                            -7 	(obj:0)
$_150_y                                            -8 	(obj:0)
$_150_z                                            -8 	(obj:0)
$_92_y                                             -8 	(obj:0)
$_92_z                                            -15 	(obj:0)
$_91_x                                             -8 	(obj:0)
$_91_y                                             -4 	(obj:0)
$_91_z                                            -23 	(obj:0)
$_40_y                                             -8 	(obj:0)
$_52__6_x                                          -8 	(obj:0)
$_230_x                                            -8 	(obj:0)
$_230_y                                            -6 	(obj:0)
$_230_z                                           -19 	(obj:0)
$_93_x                                             -8 	(obj:0)
$_93_y                                             -6 	(obj:0)
$_287_x                                            -8 	(obj:0)
$_287_y                                            -7 	(obj:0)
$_287_z                                            -7 	(obj:0)
$_93_z                                            -23 	(obj:0)
$_52__6_y                                          -8 	(obj:0)
$_156__6_x                                         -2 	(obj:0)
$_156__6_y                                         -8 	(obj:0)
$_156__6_z                                        -25 	(obj:0)
$_52__6_z                                           4 	(obj:0)
$_32__6_x                                          -7 	(obj:0)
$_246__6_x                                         -8 	(obj:0)
$_246__6_y                                         -2 	(obj:0)
$_246__6_z                                        -21 	(obj:0)
$_32__6_y                                          -8 	(obj:0)
$_32__6_z                                         -24 	(obj:0)
$_205__6_x                                         -4 	(obj:0)
$_205__6_y                                         -8 	(obj:0)
$_205__6_z                                        -24 	(obj:0)
$_208_x                                            -8 	(obj:0)
$_208_y                                            -6 	(obj:0)
$_236__6_x                                         -8 	(obj:0)
$_236__6_y                                         -4 	(obj:0)
$_236__6_z                                          1 	(obj:0)
$_38__6_x                                          -8 	(obj:0)
$_38__6_y                                          -8 	(obj:0)
$_250_x                                            -8 	(obj:0)
$_250_y                                            -7 	(obj:0)
$_250_z                                           -19 	(obj:0)
$_38__6_z                                         -18 	(obj:0)
$_189_x                                            -8 	(obj:0)
$_195__6_x                                         -8 	(obj:0)
$_195__6_y                                         -4 	(obj:0)
$_195__6_z                                         -2 	(obj:0)
$_189_y                                            -5 	(obj:0)
$_43_x                                             -3 	(obj:0)
$_59_x                                             -8 	(obj:0)
$_59_y                                             -7 	(obj:0)
$_59_z                                             -3 	(obj:0)
$_43_y                                             -8 	(obj:0)
$_43_z                                             -2 	(obj:0)
$_90_x                                             -8 	(obj:0)
$_90_y                                             -8 	(obj:0)
$_90_z                                            -15 	(obj:0)
$_189_z                                           -22 	(obj:0)
$_208_z                                           -22 	(obj:0)
x528                                                2 	(obj:1)
x535                                                3 	(obj:1)
x549                                                1 	(obj:1)
x555                                                3 	(obj:1)
x556                                                2 	(obj:1)
x558                                                2 	(obj:1)
x561                                                2 	(obj:1)
x565                                                2 	(obj:1)
x566                                                2 	(obj:1)
x588                                                1 	(obj:1)
x591                                                3 	(obj:1)
x593                                                1 	(obj:1)
x596                                                1 	(obj:1)
x597                                                1 	(obj:1)
x607                                                2 	(obj:1)
x609                                                1 	(obj:1)
x612                                                5 	(obj:1)
x615                                                5 	(obj:1)
x621                                                2 	(obj:1)
x623                                                2 	(obj:1)
x624                                                1 	(obj:1)
x626                                                2 	(obj:1)
x627                                                1 	(obj:1)
x630                                                3 	(obj:1)
x635                                                2 	(obj:1)
x637                                                3 	(obj:1)
x638                                                1 	(obj:1)
x645                                                5 	(obj:1)
x651                                                1 	(obj:1)
x660                                                2 	(obj:1)
x661                                                1 	(obj:1)
x675                                                4 	(obj:1)
x685                                                1 	(obj:1)
x688                                                1 	(obj:1)
x693                                                2 	(obj:1)
x697                                                1 	(obj:1)
x699                                                5 	(obj:1)
x703                                                2 	(obj:1)
x705                                                3 	(obj:1)
x706                                                1 	(obj:1)
x709                                                5 	(obj:1)
x718                                                2 	(obj:1)
x720                                                2 	(obj:1)
x721                                                4 	(obj:1)
x722                                                1 	(obj:1)
x727                                                2 	(obj:1)
x728                                                1 	(obj:1)
x735                                                5 	(obj:1)
x738                                                2 	(obj:1)
x739                                                1 	(obj:1)
x742                                                4 	(obj:1)
x743                                                2 	(obj:1)
x745                                                4 	(obj:1)
x746                                                1 	(obj:1)
x750                                                5 	(obj:1)
x751                                                1 	(obj:1)
x752                                                2 	(obj:1)
x753                                                1 	(obj:1)
x759                                                2 	(obj:1)
x763                                                1 	(obj:1)
x769                                                2 	(obj:1)
x772                                                1 	(obj:1)
x775                                                1 	(obj:1)
x777                                                1 	(obj:1)
x780                                                2 	(obj:1)
x783                                                2 	(obj:1)
x785                                                1 	(obj:1)
x790                                                2 	(obj:1)
x792                                                1 	(obj:1)
x797                                                4 	(obj:1)
x799                                                1 	(obj:1)
x804                                                1 	(obj:1)
x808                                                1 	(obj:1)
x811                                                1 	(obj:1)
x823                                                4 	(obj:1)
x828                                                1 	(obj:1)
x837                                                3 	(obj:1)
x838                                                3 	(obj:1)
x841                                                1 	(obj:1)
x844                                                1 	(obj:1)
x850                                                1 	(obj:1)
x859                                                1 	(obj:1)
x861                                                2 	(obj:1)
x863                                                1 	(obj:1)
x888                                                2 	(obj:1)
x891                                                5 	(obj:1)
x894                                                5 	(obj:1)
x897                                                1 	(obj:1)
